(set-logic HORN)
(declare-fun k_23 (Int Int Int Int Int (Array Int Int) (Array Int Int)) Bool)
(declare-fun k_28 (Int Int Int Int Int (Array Int Int) (Array Int Int)) Bool)
(declare-fun k_26
             (Int Int Int Int Int Int (Array Int Int) (Array Int Int))
             Bool)
(declare-fun Prop (Int (Array Int Int) (Array Int Int)) Bool)
(declare-fun isJustS (Int (Array Int Int) (Array Int Int)) Bool)
(assert (forall ((GT_6W Int)
         (LT_6S Int)
         (True_6u Int)
         (VV_F1 Int)
         (EQ_6U Int)
         (fromJustS (Array Int Int))
         (cmp (Array Int Int)))
  (=> (and (= (select cmp EQ_6U) EQ_6U)
           (= (select cmp GT_6W) GT_6W)
           (= (select cmp LT_6S) LT_6S)
           (Prop True_6u fromJustS cmp)
           (Prop VV_F1 fromJustS cmp)
           (= VV_F1 True_6u)
           true)
      (k_28 EQ_6U GT_6W LT_6S True_6u VV_F1 fromJustS cmp))))
(assert (forall ((GT_6W Int)
         (LT_6S Int)
         (True_6u Int)
         (VV_F2 Int)
         (EQ_6U Int)
         (fromJustS (Array Int Int))
         (cmp (Array Int Int)))
  (=> (and (= (select cmp EQ_6U) EQ_6U)
           (= (select cmp GT_6W) GT_6W)
           (= (select cmp LT_6S) LT_6S)
           (Prop True_6u fromJustS cmp)
           true)
      (k_23 EQ_6U GT_6W LT_6S True_6u VV_F2 fromJustS cmp))))
(assert (forall ((True_6u Int)
         (EQ_6U Int)
         (GT_6W Int)
         (LT_6S Int)
         (z Int)
         (VV_F3 Int)
         (fromJustS (Array Int Int))
         (cmp (Array Int Int)))
  (let ((a!1 (and (not (= (select fromJustS VV_F3) z))
                  (= (select cmp EQ_6U) EQ_6U)
                  (= (select cmp GT_6W) GT_6W)
                  (= (select cmp LT_6S) LT_6S)
                  (Prop True_6u fromJustS cmp)
                  (= (select fromJustS VV_F3) z)
                  (=> (isJustS VV_F3 fromJustS cmp) true)
                  (=> true (isJustS VV_F3 fromJustS cmp))
                  true
                  true)))
    (=> a!1 false))))
(assert (forall ((True_6u Int)
         (EQ_6U Int)
         (GT_6W Int)
         (LT_6S Int)
         (z_alV Int)
         (VV_F4 Int)
         (fromJustS (Array Int Int))
         (cmp (Array Int Int)))
  (=> (and (k_23 EQ_6U GT_6W LT_6S True_6u z_alV fromJustS cmp)
           (= (select cmp EQ_6U) EQ_6U)
           (= (select cmp GT_6W) GT_6W)
           (= (select cmp LT_6S) LT_6S)
           (Prop True_6u fromJustS cmp)
           (k_23 EQ_6U GT_6W LT_6S True_6u VV_F4 fromJustS cmp)
           (= VV_F4 z_alV)
           true)
      (k_26 EQ_6U GT_6W LT_6S True_6u VV_F4 z_alV fromJustS cmp))))

(check-sat)
